Traveling Salesman Problem/TSP_generados/Aleatorio1621103224_5.tsp
NAME: Aleatorio1621103224_5.tsp
COMMENT: Randomly generated scenario
TYPE: TSP
DIMENSION: 5
EDGE_WEIGHT_TYPE: ATT
NODE_COORD_SECTION
1 43.57 49.53
2 47.0 10.56
3 42.35 28.01
4 28.67 12.4
5 8.37 32.35
