Traveling Salesman Problem/TSP_generados/Aleatorio1621103224_5.opt.tour
NAME: Aleatorio1621103224_5.opt.tour
COMMENT: Optimal solution for Aleatorio1621103224_5 (125.66649733288146)
TYPE: TOUR
DIMENSION: 5
TOUR_SECTION
1 5 4 2 3
-1
EOF
